32	0

0	3	2	3	4
10	2	5	6
3	2	5	6
8	2	5	6
6	2	7	8
8	2	7	8
6	2	9	11
6	2	9	11
1	1	10
4	2	12	14
3	2	12	14
2	2	13	15
10	2	16	17
3	1	15
6	2	16	17
10	2	18	19
5	2	18	19
5	1	20
3	1	20
1	2	21	22
10	1	23
9	1	23
9	3	24	25	26
9	2	29	30
8	1	28
1	1	27
3	1	28
2	2	29	30
2	1	31
9	1	32
9	1	32
0	0
